p cnf 15 39
-15 -13 -11 0
-15 -13 -2 0
15 12 -8 0
-15 12 2 0
15 -11 7 0
15 -7 1 0
14 -13 3 0
14 12 -6 0
-14 -10 5 0
14 -8 -7 0
14 6 -3 0
13 -11 -2 0
-13 10 9 0
13 -10 5 0
-13 10 -3 0
-13 7 2 0
13 3 1 0
12 11 -4 0
12 -9 -8 0
11 10 9 0
11 10 -4 0
-11 -8 5 0
-11 -7 -5 0
-10 -9 -6 0
10 -9 -4 0
-10 9 2 0
10 -6 3 0
10 -3 1 0
-9 8 -6 0
9 -8 -6 0
-8 7 5 0
8 7 -5 0
-8 -7 1 0
-8 5 -3 0
7 -6 -4 0
7 -3 -2 0
-6 -5 -4 0
-5 -4 2 0
5 3 2 0
